Version identifier: 20.1.0.0 | 2020-11-10 | 9bedb6d68
CPXPARAM_Threads                                 1
CPXPARAM_TimeLimit                               7200
CPXPARAM_MIP_Tolerances_MIPGap                   0
Generic callback                                 0x60
1 of 1 MIP starts provided solutions.
MIP start 'm1' defined initial solution with objective 3228.6616.
Tried aggregator 1 time.
Reduced MIP has 400801 rows, 400501 columns, and 1200500 nonzeros.
Reduced MIP has 500 binaries, 0 generals, 0 SOSs, and 0 indicators.
Presolve time = 0.40 sec. (381.28 ticks)
Probing time = 0.05 sec. (50.03 ticks)
Tried aggregator 1 time.
Reduced MIP has 400801 rows, 400501 columns, and 1200500 nonzeros.
Reduced MIP has 500 binaries, 0 generals, 0 SOSs, and 0 indicators.
Presolve time = 0.40 sec. (374.78 ticks)
Probing time = 0.05 sec. (50.03 ticks)
MIP emphasis: balance optimality and feasibility.
MIP search method: dynamic search.
Parallel mode: none, using 1 thread.
Root relaxation solution time = 0.13 sec. (154.36 ticks)

        Nodes                                         Cuts/
   Node  Left     Objective  IInf  Best Integer    Best Bound    ItCnt     Gap

*     0+    0                         3228.6616     4368.0000            35.29%
      0     0     3251.9947     2     3228.6616     4368.0000        0   35.29%
      0     2     3251.9947     2     3228.6616     3251.9947        0    0.72%
Elapsed time = 213.62 sec. (161597.23 ticks, tree = 0.01 MB, solutions = 1)
      1     3     3240.5716     2     3228.6616     3251.9947    13448    0.72%
      2     4     3241.0314    10     3228.6616     3241.0314    21800    0.38%
      3     5     3240.3953    12     3228.6616     3241.0314    23385    0.38%
      4     6     3240.3775     4     3228.6616     3241.0314    24053    0.38%
      5     7     3240.0152     2     3228.6616     3241.0314    34590    0.38%
      6     8     3239.2527     2     3228.6616     3241.0314    43873    0.38%
      7     9     3238.6470     5     3228.6616     3241.0314    60146    0.38%
      8    10     3237.0462     7     3228.6616     3241.0314    75583    0.38%
*     9     7      integral     0     3239.2458     3241.0314    75600    0.06%
      9     5     3239.2458     0     3239.2458     3241.0314    75600    0.06%
     10     6     3241.0189     2     3239.2458     3241.0312    85572    0.06%
Elapsed time = 862.66 sec. (582213.25 ticks, tree = 3.64 MB, solutions = 2)
     11     7     3240.5256     4     3239.2458     3241.0312    86866    0.06%
     12     8     3240.7982     2     3239.2458     3241.0312    88070    0.06%
     13     9     3240.0814     2     3239.2458     3241.0312    93633    0.06%
*    14     8      integral     0     3240.1677     3241.0312    98177    0.03%
     14     6     3240.1677     0     3240.1677     3241.0312    98177    0.03%
     15     7     3240.7256    11     3240.1677     3240.7239   101130    0.02%
     16     8     3240.6433     6     3240.1677     3240.7239   101680    0.02%
*    17     7      integral     0     3240.2715     3240.7239   102630    0.01%
     18     6        cutoff           3240.2715     3240.7239   104160    0.01%
     19     7     3240.4416     4     3240.2715     3240.5254   105785    0.01%
     20     6        cutoff           3240.2715     3240.5254   106755    0.01%
Elapsed time = 1204.86 sec. (790954.96 ticks, tree = 3.78 MB, solutions = 4)
     21     5        cutoff           3240.2715     3240.5254   107899    0.01%
*    22     1      integral     0     3240.5237     3240.5248   107905    0.00%

User cuts applied:  13

Root node processing (before b&c):
  Real time             =  213.63 sec. (161618.92 ticks)
Sequential b&c:
  Real time             = 1015.19 sec. (646414.07 ticks)
                          ------------
Total (root+branch&cut) = 1228.81 sec. (808032.99 ticks)
@Parameters: 
is_S_cut                                true
is_add_all_yinF                         true
is_start_value                          true
is_usercut                              true
is_visualization                        false
uc_only_rootnode                        false

data                                    Qi
fn                                      data/Qi/instance_800_500.csv
mode                                    ZLP
solver                                  cplex

p                                       10
r                                       2

EPS                                     1.0e-06
EPS_vio                                 1.0e-04
beta                                    0.10
gap                                     0.00
nodelimit                               Inf
timelimit                               7200.00


@PrintInfos
ItCnt: 107909
Current gap: 0.00 %
Termination Status: OPTIMAL
Primal Status: FEASIBLE_POINT
Solve Time: 1228.81 sec
Objective Value: 3240.523654
Number of Nodes:     24

CutInfo: [phase] num / time (sec) 
ZLP             [phase1]     0 / 0.00 [rLC]     3 / 9.36 [rUC]     2 / 4.29 [sLC]     0 / 7.25 [sUC]    11 / 89.82 
OldSubmodular   [phase1]     0 / 0.00 [rLC]     0 / 0.00 [rUC]     0 / 0.00 [sLC]     0 / 0.00 [sUC]     0 / 0.00 
NewSubmodular   [phase1]     0 / 0.00 [rLC]     0 / 0.00 [rUC]     0 / 0.00 [sLC]     0 / 0.00 [sUC]     0 / 0.00 
PMP             [phase1]     0 / 0.00 [rLC]     4 / 6.64 [rUC]     2 / 3.20 [sLC]     4 / 6.27 [sUC]    41 / 74.55 
Separation Round: [phase1] 0  [rLC] 4  [rUC] 2  [sLC] 4  [sUC] 41
Root Best Bound 3241.031355
Root Best Integer: 3228.661569
Best Bound: 3240.523654
Best Integer: 3240.523654

